TCS_Benchmarks/redos_fix/snort1_output_distinct_2442_2441_24_0.smt2
(set-logic QF_S)
(declare-const x String)
(assert (str.in.re x (re.inter  (re.++ (re.* (re.comp  (re.union  (str.to_re "\u{0A}")  (str.to_re "\u{0D}"))) ) (re.* (re.comp  (re.union  (str.to_re "\u{0A}")  (str.to_re "\u{0D}"))) ))  (re.++ (re.* (re.comp  (re.union  (str.to_re "\u{0A}")  (str.to_re "\u{0D}"))) ) (re.++  (re.++  (re.union  (str.to.re "\u{66}")  (str.to.re "\u{46}")) (re.++  (re.union  (str.to.re "\u{72}")  (str.to.re "\u{52}")) (re.++  (re.union  (str.to.re "\u{6f}")  (str.to.re "\u{4f}"))  (re.union  (str.to.re "\u{6d}")  (str.to.re "\u{4d}"))))) (re.* (re.comp  (re.union  (str.to_re "\u{0A}")  (str.to_re "\u{0D}"))) ))) )))
(check-sat)
(get-model)