TCS_Benchmarks/redos_fix/snort1_output_distinct_2442_2441_24_0.txt
([^\n\r]*)([^\n\r]*)
([^\n\r]*)([fF][rR][oO][mM])([^\n\r]*)